# Small calculation
SYSTEM = Small Si calculation
ISTART = 0
ICHARG = 2
ENCUT = 300
ISMEAR = 0
SIGMA = 0.05
EDIFF = 1E-5
NSW = 0
IBRION = -1
PREC = Normal
