# First calculation
SYSTEM = Multi calc 1
ISTART = 0
ICHARG = 2
ENCUT = 400
ISMEAR = 0
SIGMA = 0.05
EDIFF = 1E-6
NSW = 0
IBRION = -1
