Multi calc 1
1.0
  5.43 0.00 0.00
  0.00 5.43 0.00
  0.00 0.00 5.43
Si
2
Direct
0.00 0.00 0.00
0.25 0.25 0.25
