# Second calculation
SYSTEM = Multi calc 2
ISTART = 0
ICHARG = 2
ENCUT = 500
ISMEAR = 0
SIGMA = 0.05
EDIFF = 1E-6
NSW = 0
IBRION = -1
NCORE = 4
