Multi calc 2 mesh
0
Monkhorst-Pack
4 4 4
0 0 0
