Multi calc 2
1.0
  7.65 0.00 0.00
  0.00 7.65 0.00
  0.00 0.00 7.65
Si
4
Direct
0.00 0.00 0.00
0.25 0.25 0.25
0.50 0.50 0.00
0.75 0.75 0.25
