# Large calculation with parallelization
SYSTEM = Large Si calculation
ISTART = 0
ICHARG = 2
ENCUT = 520
ISMEAR = 0
SIGMA = 0.05
EDIFF = 1E-6
NSW = 0
IBRION = -1
PREC = Accurate
LREAL = False
NCORE = 4
KPAR = 2
