Large Si supercell
1.0
  10.86 0.00 0.00
  0.00 10.86 0.00
  0.00 0.00 10.86
Si
16
Direct
0.000 0.000 0.000
0.250 0.250 0.250
0.500 0.000 0.000
0.750 0.250 0.250
0.000 0.500 0.000
0.250 0.750 0.250
0.500 0.500 0.000
0.750 0.750 0.250
0.000 0.000 0.500
0.250 0.250 0.750
0.500 0.000 0.500
0.750 0.250 0.750
0.000 0.500 0.500
0.250 0.750 0.750
0.500 0.500 0.500
0.750 0.750 0.750
